\ Model qkp
\ LP format - for model browsing. Use MPS format to capture full model detail.
Maximize
  27 x_1 + 30 x_2 + 25 x_3 + 48 x_4 + 7 x_5 + 28 x_6 + 47 x_7 + 2 x_8
   + 11 x_9 + 42 x_10 + 19 x_11 + 9 x_13 + 20 x_14 + 47 x_15 + 50 x_16
   + 32 x_18 + 16 x_19 + 29 x_20 + 18 x_21 + 43 x_22 + 49 x_24 + 8 x_25
   + 33 x_26 + 4 x_27 + 27 x_28 + 43 x_29 + 4 x_30 + 12 x_32 + 12 x_33
   + 6 x_35 + 27 x_36 + 6 x_38 + 38 x_39 + 34 x_40 + 46 x_42 + 40 x_43
   + 46 x_45 + 6 x_46 + 10 x_50 + [ 124 x_1 * x_2 + 20 x_1 * x_3
   + 8 x_1 * x_4 + 116 x_1 * x_6 + 144 x_1 * x_9 + 88 x_1 * x_11
   + 60 x_1 * x_12 + 128 x_1 * x_13 + 24 x_1 * x_14 + 172 x_1 * x_15
   + 48 x_1 * x_16 + 168 x_1 * x_17 + 8 x_1 * x_18 + 4 x_1 * x_19
   + 20 x_1 * x_20 + 176 x_1 * x_21 + 100 x_1 * x_22 + 28 x_1 * x_23
   + 176 x_1 * x_25 + 4 x_1 * x_28 + 76 x_1 * x_29 + 160 x_1 * x_30
   + 196 x_1 * x_31 + 80 x_1 * x_32 + 180 x_1 * x_33 + 12 x_1 * x_34
   + 28 x_1 * x_35 + 72 x_1 * x_38 + 20 x_1 * x_39 + 184 x_1 * x_40
   + 132 x_1 * x_41 + 164 x_1 * x_42 + 140 x_1 * x_43 + 112 x_1 * x_44
   + 36 x_1 * x_45 + 32 x_1 * x_46 + 156 x_1 * x_47 + 8 x_1 * x_48
   + 176 x_1 * x_49 + 180 x_1 * x_50 + 8 x_2 * x_3 + 84 x_2 * x_4
   + 156 x_2 * x_5 + 144 x_2 * x_6 + 52 x_2 * x_8 + 40 x_2 * x_10
   + 124 x_2 * x_11 + 172 x_2 * x_13 + 4 x_2 * x_14 + 16 x_2 * x_17
   + 88 x_2 * x_18 + 44 x_2 * x_19 + 200 x_2 * x_22 + 200 x_2 * x_23
   + 92 x_2 * x_24 + 112 x_2 * x_25 + 60 x_2 * x_26 + 152 x_2 * x_27
   + 132 x_2 * x_28 + 36 x_2 * x_29 + 164 x_2 * x_31 + 96 x_2 * x_32
   + 24 x_2 * x_35 + 164 x_2 * x_36 + 164 x_2 * x_38 + 152 x_2 * x_39
   + 4 x_2 * x_40 + 136 x_2 * x_41 + 176 x_2 * x_42 + 108 x_2 * x_45
   + 104 x_2 * x_46 + 160 x_2 * x_47 + 188 x_2 * x_48 + 148 x_2 * x_49
   + 96 x_2 * x_50 + 20 x_3 * x_4 + 164 x_3 * x_6 + 104 x_3 * x_7
   + 68 x_3 * x_8 + 176 x_3 * x_9 + 172 x_3 * x_10 + 120 x_3 * x_11
   + 144 x_3 * x_12 + 12 x_3 * x_13 + 64 x_3 * x_14 + 200 x_3 * x_16
   + 120 x_3 * x_17 + 80 x_3 * x_19 + 88 x_3 * x_21 + 40 x_3 * x_22
   + 96 x_3 * x_23 + 52 x_3 * x_24 + 116 x_3 * x_25 + 100 x_3 * x_27
   + 152 x_3 * x_28 + 196 x_3 * x_31 + 100 x_3 * x_32 + 164 x_3 * x_33
   + 132 x_3 * x_34 + 12 x_3 * x_35 + 128 x_3 * x_36 + 108 x_3 * x_37
   + 24 x_3 * x_38 + 96 x_3 * x_39 + 184 x_3 * x_40 + 92 x_3 * x_41
   + 192 x_3 * x_42 + 60 x_3 * x_47 + 60 x_3 * x_48 + 184 x_3 * x_50
   + 72 x_4 * x_5 + 200 x_4 * x_6 + 188 x_4 * x_7 + 12 x_4 * x_10
   + 192 x_4 * x_11 + 192 x_4 * x_12 + 144 x_4 * x_13 + 28 x_4 * x_14
   + 196 x_4 * x_15 + 188 x_4 * x_17 + 64 x_4 * x_20 + 32 x_4 * x_22
   + 200 x_4 * x_23 + 160 x_4 * x_24 + 68 x_4 * x_26 + 32 x_4 * x_27
   + 136 x_4 * x_28 + 64 x_4 * x_29 + 104 x_4 * x_30 + 108 x_4 * x_32
   + 64 x_4 * x_33 + 160 x_4 * x_34 + 4 x_4 * x_35 + 120 x_4 * x_36
   + 20 x_4 * x_37 + 52 x_4 * x_38 + 164 x_4 * x_39 + 156 x_4 * x_40
   + 28 x_4 * x_42 + 56 x_4 * x_43 + 144 x_4 * x_44 + 152 x_4 * x_45
   + 56 x_4 * x_46 + 156 x_4 * x_47 + 152 x_4 * x_49 + 104 x_4 * x_50
   + 92 x_5 * x_7 + 76 x_5 * x_8 + 128 x_5 * x_10 + 116 x_5 * x_12
   + 116 x_5 * x_13 + 56 x_5 * x_15 + 88 x_5 * x_16 + 48 x_5 * x_17
   + 56 x_5 * x_18 + 16 x_5 * x_19 + 124 x_5 * x_20 + 140 x_5 * x_21
   + 68 x_5 * x_22 + 8 x_5 * x_23 + 8 x_5 * x_25 + 156 x_5 * x_28
   + 96 x_5 * x_29 + 20 x_5 * x_30 + 164 x_5 * x_31 + 156 x_5 * x_32
   + 116 x_5 * x_33 + 156 x_5 * x_34 + 64 x_5 * x_36 + 56 x_5 * x_37
   + 48 x_5 * x_39 + 8 x_5 * x_40 + 36 x_5 * x_41 + 80 x_5 * x_42
   + 144 x_5 * x_44 + 172 x_5 * x_45 + 72 x_5 * x_46 + 140 x_5 * x_47
   + 120 x_5 * x_48 + 168 x_5 * x_50 + 156 x_6 * x_7 + 160 x_6 * x_8
   + 60 x_6 * x_11 + 184 x_6 * x_12 + 48 x_6 * x_14 + 172 x_6 * x_15
   + 72 x_6 * x_16 + 12 x_6 * x_17 + 88 x_6 * x_18 + 8 x_6 * x_19
   + 72 x_6 * x_20 + 92 x_6 * x_21 + 184 x_6 * x_22 + 32 x_6 * x_24
   + 80 x_6 * x_25 + 108 x_6 * x_26 + 116 x_6 * x_28 + 160 x_6 * x_30
   + 8 x_6 * x_31 + 16 x_6 * x_32 + 16 x_6 * x_34 + 72 x_6 * x_35
   + 184 x_6 * x_36 + 164 x_6 * x_37 + 16 x_6 * x_38 + 152 x_6 * x_39
   + 188 x_6 * x_40 + 156 x_6 * x_41 + 8 x_6 * x_42 + 124 x_6 * x_43
   + 188 x_6 * x_44 + 164 x_6 * x_45 + 132 x_6 * x_46 + 16 x_6 * x_47
   + 44 x_6 * x_48 + 48 x_6 * x_49 + 116 x_6 * x_50 + 164 x_7 * x_8
   + 12 x_7 * x_9 + 164 x_7 * x_10 + 112 x_7 * x_11 + 180 x_7 * x_12
   + 4 x_7 * x_13 + 24 x_7 * x_15 + 156 x_7 * x_16 + 60 x_7 * x_17
   + 88 x_7 * x_18 + 140 x_7 * x_19 + 184 x_7 * x_20 + 108 x_7 * x_21
   + 188 x_7 * x_22 + 176 x_7 * x_23 + 40 x_7 * x_24 + 76 x_7 * x_26
   + 140 x_7 * x_27 + 44 x_7 * x_28 + 108 x_7 * x_30 + 136 x_7 * x_31
   + 96 x_7 * x_32 + 128 x_7 * x_34 + 192 x_7 * x_36 + 48 x_7 * x_37
   + 180 x_7 * x_38 + 184 x_7 * x_40 + 184 x_7 * x_41 + 120 x_7 * x_43
   + 8 x_7 * x_44 + 64 x_7 * x_45 + 48 x_7 * x_46 + 48 x_7 * x_47
   + 196 x_7 * x_48 + 116 x_7 * x_49 + 16 x_7 * x_50 + 116 x_8 * x_9
   + 56 x_8 * x_10 + 24 x_8 * x_12 + 148 x_8 * x_13 + 128 x_8 * x_14
   + 152 x_8 * x_15 + 36 x_8 * x_19 + 64 x_8 * x_20 + 196 x_8 * x_21
   + 56 x_8 * x_22 + 96 x_8 * x_23 + 168 x_8 * x_24 + 24 x_8 * x_25
   + 32 x_8 * x_26 + 116 x_8 * x_28 + 20 x_8 * x_29 + 116 x_8 * x_30
   + 148 x_8 * x_31 + 44 x_8 * x_32 + 156 x_8 * x_35 + 172 x_8 * x_38
   + 196 x_8 * x_40 + 200 x_8 * x_41 + 44 x_8 * x_42 + 40 x_8 * x_44
   + 104 x_8 * x_46 + 156 x_8 * x_47 + 88 x_8 * x_48 + 32 x_8 * x_49
   + 136 x_8 * x_50 + 128 x_9 * x_10 + 24 x_9 * x_11 + 24 x_9 * x_13
   + 92 x_9 * x_14 + 48 x_9 * x_15 + 112 x_9 * x_16 + 200 x_9 * x_17
   + 36 x_9 * x_18 + 68 x_9 * x_20 + 156 x_9 * x_21 + 116 x_9 * x_22
   + 40 x_9 * x_24 + 36 x_9 * x_25 + 100 x_9 * x_28 + 128 x_9 * x_29
   + 140 x_9 * x_30 + 172 x_9 * x_31 + 28 x_9 * x_32 + 168 x_9 * x_33
   + 108 x_9 * x_34 + 60 x_9 * x_35 + 160 x_9 * x_36 + 144 x_9 * x_37
   + 104 x_9 * x_38 + 192 x_9 * x_39 + 44 x_9 * x_40 + 176 x_9 * x_41
   + 72 x_9 * x_43 + 112 x_9 * x_44 + 148 x_9 * x_45 + 36 x_9 * x_47
   + 164 x_9 * x_48 + 100 x_9 * x_49 + 112 x_9 * x_50 + 36 x_10 * x_12
   + 140 x_10 * x_13 + 8 x_10 * x_14 + 196 x_10 * x_16 + 84 x_10 * x_17
   + 108 x_10 * x_18 + 168 x_10 * x_19 + 84 x_10 * x_21 + 168 x_10 * x_22
   + 120 x_10 * x_24 + 108 x_10 * x_25 + 104 x_10 * x_27 + 16 x_10 * x_28
   + 48 x_10 * x_29 + 36 x_10 * x_30 + 140 x_10 * x_31 + 12 x_10 * x_32
   + 112 x_10 * x_33 + 96 x_10 * x_34 + 140 x_10 * x_35 + 188 x_10 * x_36
   + 36 x_10 * x_37 + 124 x_10 * x_38 + 172 x_10 * x_39 + 148 x_10 * x_40
   + 176 x_10 * x_41 + 128 x_10 * x_42 + 144 x_10 * x_43 + 52 x_10 * x_45
   + 128 x_10 * x_48 + 200 x_10 * x_49 + 24 x_10 * x_50 + 60 x_11 * x_13
   + 64 x_11 * x_14 + 56 x_11 * x_15 + 8 x_11 * x_16 + 124 x_11 * x_17
   + 68 x_11 * x_18 + 4 x_11 * x_19 + 72 x_11 * x_20 + 148 x_11 * x_23
   + 4 x_11 * x_24 + 88 x_11 * x_25 + 132 x_11 * x_27 + 112 x_11 * x_29
   + 40 x_11 * x_31 + 196 x_11 * x_32 + 64 x_11 * x_34 + 108 x_11 * x_35
   + 44 x_11 * x_37 + 152 x_11 * x_38 + 124 x_11 * x_39 + 124 x_11 * x_42
   + 192 x_11 * x_43 + 180 x_11 * x_45 + 148 x_11 * x_47 + 128 x_11 * x_48
   + 172 x_11 * x_49 + 96 x_11 * x_50 + 20 x_12 * x_13 + 12 x_12 * x_14
   + 92 x_12 * x_15 + 180 x_12 * x_16 + 112 x_12 * x_17 + 68 x_12 * x_18
   + 100 x_12 * x_21 + 4 x_12 * x_23 + 52 x_12 * x_24 + 96 x_12 * x_25
   + 148 x_12 * x_26 + 192 x_12 * x_27 + 152 x_12 * x_28 + 36 x_12 * x_29
   + 84 x_12 * x_30 + 52 x_12 * x_31 + 76 x_12 * x_32 + 80 x_12 * x_33
   + 60 x_12 * x_34 + 168 x_12 * x_36 + 68 x_12 * x_37 + 60 x_12 * x_39
   + 92 x_12 * x_40 + 176 x_12 * x_41 + 196 x_12 * x_43 + 144 x_12 * x_44
   + 96 x_12 * x_46 + 160 x_12 * x_47 + 64 x_12 * x_48 + 56 x_12 * x_49
   + 196 x_12 * x_50 + 72 x_13 * x_14 + 28 x_13 * x_15 + 48 x_13 * x_17
   + 68 x_13 * x_22 + 4 x_13 * x_23 + 140 x_13 * x_24 + 164 x_13 * x_25
   + 72 x_13 * x_26 + 44 x_13 * x_27 + 44 x_13 * x_28 + 136 x_13 * x_29
   + 164 x_13 * x_31 + 36 x_13 * x_32 + 188 x_13 * x_33 + 180 x_13 * x_34
   + 108 x_13 * x_35 + 100 x_13 * x_36 + 96 x_13 * x_37 + 164 x_13 * x_38
   + 32 x_13 * x_39 + 8 x_13 * x_42 + 32 x_13 * x_43 + 176 x_13 * x_45
   + 120 x_13 * x_46 + 84 x_13 * x_47 + 196 x_13 * x_49 + 76 x_14 * x_15
   + 196 x_14 * x_16 + 184 x_14 * x_17 + 164 x_14 * x_18 + 136 x_14 * x_20
   + 164 x_14 * x_23 + 32 x_14 * x_24 + 40 x_14 * x_25 + 16 x_14 * x_29
   + 32 x_14 * x_30 + 176 x_14 * x_31 + 120 x_14 * x_33 + 192 x_14 * x_34
   + 160 x_14 * x_36 + 144 x_14 * x_37 + 76 x_14 * x_39 + 168 x_14 * x_40
   + 8 x_14 * x_41 + 184 x_14 * x_42 + 84 x_14 * x_43 + 96 x_14 * x_44
   + 92 x_14 * x_46 + 100 x_14 * x_47 + 88 x_14 * x_49 + 20 x_14 * x_50
   + 180 x_15 * x_16 + 176 x_15 * x_18 + 132 x_15 * x_20 + 152 x_15 * x_21
   + 104 x_15 * x_22 + 184 x_15 * x_23 + 64 x_15 * x_24 + 148 x_15 * x_26
   + 84 x_15 * x_27 + 56 x_15 * x_29 + 16 x_15 * x_30 + 196 x_15 * x_31
   + 108 x_15 * x_32 + 56 x_15 * x_33 + 108 x_15 * x_34 + 184 x_15 * x_35
   + 140 x_15 * x_36 + 52 x_15 * x_37 + 92 x_15 * x_40 + 132 x_15 * x_43
   + 124 x_15 * x_46 + 40 x_15 * x_49 + 28 x_15 * x_50 + 12 x_16 * x_17
   + 180 x_16 * x_18 + 8 x_16 * x_19 + 168 x_16 * x_20 + 96 x_16 * x_23
   + 132 x_16 * x_24 + 164 x_16 * x_26 + 60 x_16 * x_27 + 120 x_16 * x_28
   + 176 x_16 * x_30 + 140 x_16 * x_32 + 64 x_16 * x_34 + 200 x_16 * x_35
   + 4 x_16 * x_36 + 28 x_16 * x_38 + 96 x_16 * x_41 + 124 x_16 * x_42
   + 164 x_16 * x_43 + 60 x_16 * x_44 + 136 x_16 * x_45 + 164 x_16 * x_46
   + 116 x_16 * x_47 + 200 x_16 * x_48 + 144 x_16 * x_50 + 56 x_17 * x_18
   + 64 x_17 * x_19 + 116 x_17 * x_20 + 24 x_17 * x_21 + 144 x_17 * x_22
   + 140 x_17 * x_23 + 132 x_17 * x_26 + 104 x_17 * x_27 + 188 x_17 * x_28
   + 64 x_17 * x_29 + 112 x_17 * x_30 + 152 x_17 * x_32 + 120 x_17 * x_33
   + 36 x_17 * x_34 + 16 x_17 * x_35 + 148 x_17 * x_36 + 136 x_17 * x_37
   + 28 x_17 * x_38 + 104 x_17 * x_39 + 140 x_17 * x_40 + 48 x_17 * x_41
   + 76 x_17 * x_42 + 40 x_17 * x_43 + 64 x_17 * x_45 + 28 x_17 * x_46
   + 24 x_17 * x_47 + 24 x_17 * x_49 + 4 x_17 * x_50 + 92 x_18 * x_19
   + 4 x_18 * x_20 + 80 x_18 * x_22 + 100 x_18 * x_23 + 136 x_18 * x_24
   + 100 x_18 * x_25 + 68 x_18 * x_26 + 144 x_18 * x_27 + 68 x_18 * x_28
   + 52 x_18 * x_29 + 40 x_18 * x_30 + 144 x_18 * x_31 + 76 x_18 * x_32
   + 192 x_18 * x_33 + 12 x_18 * x_35 + 160 x_18 * x_36 + 180 x_18 * x_38
   + 88 x_18 * x_41 + 100 x_18 * x_42 + 104 x_18 * x_44 + 112 x_18 * x_45
   + 48 x_18 * x_46 + 64 x_18 * x_47 + 188 x_18 * x_48 + 4 x_18 * x_49
   + 56 x_18 * x_50 + 152 x_19 * x_20 + 164 x_19 * x_21 + 60 x_19 * x_22
   + 36 x_19 * x_23 + 164 x_19 * x_24 + 184 x_19 * x_25 + 164 x_19 * x_26
   + 80 x_19 * x_27 + 192 x_19 * x_28 + 52 x_19 * x_29 + 68 x_19 * x_30
   + 160 x_19 * x_31 + 144 x_19 * x_32 + 36 x_19 * x_33 + 40 x_19 * x_35
   + 136 x_19 * x_36 + 164 x_19 * x_39 + 120 x_19 * x_40 + 40 x_19 * x_41
   + 152 x_19 * x_42 + 32 x_19 * x_43 + 148 x_19 * x_44 + 100 x_19 * x_45
   + 144 x_19 * x_46 + 32 x_19 * x_47 + 164 x_19 * x_48 + 36 x_19 * x_49
   + 104 x_20 * x_21 + 48 x_20 * x_22 + 124 x_20 * x_23 + 176 x_20 * x_24
   + 120 x_20 * x_25 + 76 x_20 * x_26 + 28 x_20 * x_27 + 24 x_20 * x_28
   + 40 x_20 * x_30 + 100 x_20 * x_33 + 168 x_20 * x_34 + 164 x_20 * x_35
   + 64 x_20 * x_36 + 104 x_20 * x_38 + 96 x_20 * x_39 + 164 x_20 * x_40
   + 60 x_20 * x_41 + 180 x_20 * x_42 + 180 x_20 * x_43 + 12 x_20 * x_44
   + 12 x_20 * x_45 + 8 x_20 * x_47 + 84 x_20 * x_48 + 164 x_20 * x_49
   + 36 x_20 * x_50 + 20 x_21 * x_22 + 128 x_21 * x_23 + 112 x_21 * x_26
   + 172 x_21 * x_27 + 152 x_21 * x_28 + 96 x_21 * x_29 + 148 x_21 * x_30
   + 40 x_21 * x_31 + 36 x_21 * x_32 + 144 x_21 * x_33 + 8 x_21 * x_34
   + 128 x_21 * x_35 + 152 x_21 * x_36 + 8 x_21 * x_37 + 128 x_21 * x_38
   + 56 x_21 * x_39 + 8 x_21 * x_41 + 76 x_21 * x_42 + 80 x_21 * x_43
   + 44 x_21 * x_46 + 92 x_21 * x_48 + 176 x_21 * x_50 + 92 x_22 * x_24
   + 104 x_22 * x_25 + 136 x_22 * x_28 + 104 x_22 * x_29 + 44 x_22 * x_33
   + 200 x_22 * x_35 + 28 x_22 * x_36 + 164 x_22 * x_37 + 180 x_22 * x_38
   + 64 x_22 * x_39 + 16 x_22 * x_41 + 84 x_22 * x_42 + 72 x_22 * x_44
   + 40 x_22 * x_45 + 56 x_22 * x_46 + 52 x_22 * x_49 + 140 x_22 * x_50
   + 16 x_23 * x_24 + 156 x_23 * x_26 + 16 x_23 * x_27 + 128 x_23 * x_29
   + 76 x_23 * x_30 + 92 x_23 * x_34 + 48 x_23 * x_36 + 24 x_23 * x_37
   + 72 x_23 * x_38 + 144 x_23 * x_39 + 196 x_23 * x_41 + 188 x_23 * x_42
   + 28 x_23 * x_43 + 192 x_23 * x_44 + 96 x_23 * x_46 + 88 x_23 * x_48
   + 132 x_23 * x_49 + 48 x_23 * x_50 + 48 x_24 * x_26 + 196 x_24 * x_27
   + 4 x_24 * x_28 + 164 x_24 * x_29 + 8 x_24 * x_30 + 144 x_24 * x_31
   + 144 x_24 * x_32 + 180 x_24 * x_33 + 132 x_24 * x_35 + 116 x_24 * x_36
   + 148 x_24 * x_38 + 68 x_24 * x_40 + 144 x_24 * x_41 + 140 x_24 * x_42
   + 168 x_24 * x_43 + 52 x_24 * x_45 + 4 x_24 * x_46 + 132 x_24 * x_48
   + 36 x_24 * x_49 + 24 x_25 * x_27 + 168 x_25 * x_28 + 12 x_25 * x_29
   + 8 x_25 * x_31 + 168 x_25 * x_33 + 160 x_25 * x_34 + 72 x_25 * x_36
   + 116 x_25 * x_37 + 196 x_25 * x_38 + 176 x_25 * x_39 + 156 x_25 * x_40
   + 168 x_25 * x_41 + 68 x_25 * x_43 + 188 x_25 * x_44 + 140 x_25 * x_45
   + 16 x_25 * x_46 + 124 x_25 * x_47 + 16 x_25 * x_48 + 132 x_26 * x_27
   + 160 x_26 * x_28 + 104 x_26 * x_29 + 16 x_26 * x_32 + 68 x_26 * x_37
   + 28 x_26 * x_39 + 84 x_26 * x_41 + 64 x_26 * x_42 + 16 x_26 * x_43
   + 136 x_26 * x_44 + 200 x_26 * x_45 + 60 x_26 * x_46 + 184 x_26 * x_47
   + 24 x_26 * x_48 + 116 x_26 * x_49 + 172 x_27 * x_28 + 120 x_27 * x_30
   + 88 x_27 * x_31 + 20 x_27 * x_32 + 112 x_27 * x_33 + 92 x_27 * x_34
   + 56 x_27 * x_35 + 44 x_27 * x_38 + 92 x_27 * x_39 + 172 x_27 * x_40
   + 104 x_27 * x_41 + 8 x_27 * x_42 + 192 x_27 * x_43 + 16 x_27 * x_45
   + 80 x_27 * x_47 + 176 x_27 * x_48 + 76 x_27 * x_49 + 4 x_27 * x_50
   + 140 x_28 * x_29 + 108 x_28 * x_30 + 28 x_28 * x_31 + 152 x_28 * x_32
   + 72 x_28 * x_33 + 40 x_28 * x_34 + 140 x_28 * x_35 + 88 x_28 * x_39
   + 188 x_28 * x_40 + 156 x_28 * x_41 + 56 x_28 * x_42 + 48 x_28 * x_44
   + 96 x_28 * x_45 + 168 x_28 * x_48 + 16 x_28 * x_49 + 44 x_28 * x_50
   + 136 x_29 * x_30 + 36 x_29 * x_31 + 120 x_29 * x_32 + 128 x_29 * x_33
   + 20 x_29 * x_34 + 132 x_29 * x_35 + 188 x_29 * x_36 + 8 x_29 * x_37
   + 160 x_29 * x_38 + 64 x_29 * x_39 + 12 x_29 * x_40 + 184 x_29 * x_43
   + 192 x_29 * x_44 + 48 x_29 * x_45 + 140 x_29 * x_47 + 32 x_29 * x_48
   + 20 x_29 * x_49 + 124 x_29 * x_50 + 72 x_30 * x_31 + 168 x_30 * x_33
   + 4 x_30 * x_34 + 44 x_30 * x_35 + 180 x_30 * x_36 + 44 x_30 * x_37
   + 88 x_30 * x_39 + 80 x_30 * x_40 + 200 x_30 * x_41 + 200 x_30 * x_42
   + 176 x_30 * x_43 + 120 x_30 * x_44 + 188 x_30 * x_45 + 84 x_30 * x_46
   + 136 x_30 * x_48 + 200 x_30 * x_49 + 80 x_30 * x_50 + 152 x_31 * x_32
   + 40 x_31 * x_35 + 156 x_31 * x_36 + 140 x_31 * x_38 + 136 x_31 * x_39
   + 128 x_31 * x_40 + 128 x_31 * x_41 + 192 x_31 * x_43 + 88 x_31 * x_44
   + 24 x_31 * x_45 + 76 x_31 * x_46 + 68 x_31 * x_47 + 196 x_31 * x_48
   + 84 x_31 * x_50 + 104 x_32 * x_33 + 128 x_32 * x_35 + 176 x_32 * x_36
   + 60 x_32 * x_37 + 12 x_32 * x_38 + 160 x_32 * x_39 + 72 x_32 * x_40
   + 52 x_32 * x_41 + 16 x_32 * x_42 + 108 x_32 * x_43 + 92 x_32 * x_44
   + 120 x_32 * x_46 + 176 x_32 * x_47 + 200 x_32 * x_48 + 172 x_32 * x_49
   + 112 x_32 * x_50 + 72 x_33 * x_35 + 44 x_33 * x_37 + 156 x_33 * x_40
   + 128 x_33 * x_41 + 48 x_33 * x_42 + 36 x_33 * x_43 + 168 x_33 * x_44
   + 104 x_33 * x_45 + 88 x_33 * x_47 + 192 x_33 * x_48 + 136 x_33 * x_49
   + 100 x_34 * x_36 + 48 x_34 * x_37 + 4 x_34 * x_38 + 8 x_34 * x_39
   + 164 x_34 * x_40 + 24 x_34 * x_41 + 176 x_34 * x_42 + 68 x_34 * x_44
   + 104 x_34 * x_45 + 108 x_34 * x_46 + 172 x_34 * x_47 + 120 x_34 * x_48
   + 152 x_34 * x_50 + 128 x_35 * x_36 + 116 x_35 * x_37 + 40 x_35 * x_39
   + 124 x_35 * x_40 + 160 x_35 * x_41 + 24 x_35 * x_42 + 176 x_35 * x_44
   + 104 x_35 * x_45 + 168 x_35 * x_46 + 104 x_35 * x_47 + 12 x_35 * x_49
   + 120 x_35 * x_50 + 96 x_36 * x_39 + 192 x_36 * x_42 + 32 x_36 * x_43
   + 168 x_36 * x_44 + 8 x_36 * x_45 + 132 x_36 * x_46 + 180 x_36 * x_47
   + 112 x_36 * x_48 + 68 x_36 * x_49 + 132 x_36 * x_50 + 144 x_37 * x_39
   + 148 x_37 * x_40 + 164 x_37 * x_41 + 56 x_37 * x_42 + 76 x_37 * x_43
   + 72 x_37 * x_45 + 92 x_37 * x_46 + 192 x_37 * x_47 + 104 x_37 * x_48
   + 24 x_37 * x_49 + 144 x_38 * x_39 + 192 x_38 * x_40 + 104 x_38 * x_42
   + 140 x_38 * x_50 + 48 x_39 * x_40 + 132 x_39 * x_41 + 96 x_39 * x_42
   + 172 x_39 * x_44 + 124 x_39 * x_45 + 200 x_39 * x_47 + 160 x_39 * x_48
   + 160 x_39 * x_49 + 152 x_39 * x_50 + 92 x_40 * x_41 + 124 x_40 * x_42
   + 56 x_40 * x_43 + 152 x_40 * x_44 + 184 x_40 * x_46 + 160 x_40 * x_47
   + 64 x_40 * x_49 + 8 x_40 * x_50 + 100 x_41 * x_42 + 20 x_41 * x_43
   + 148 x_41 * x_45 + 28 x_41 * x_46 + 100 x_41 * x_48 + 76 x_41 * x_49
   + 40 x_41 * x_50 + 144 x_42 * x_44 + 144 x_42 * x_45 + 84 x_42 * x_46
   + 176 x_42 * x_47 + 56 x_42 * x_48 + 44 x_42 * x_50 + 180 x_43 * x_44
   + 20 x_43 * x_45 + 68 x_43 * x_46 + 72 x_43 * x_47 + 16 x_43 * x_48
   + 112 x_43 * x_50 + 196 x_44 * x_45 + 104 x_44 * x_47 + 172 x_44 * x_48
   + 200 x_44 * x_49 + 12 x_44 * x_50 + 120 x_45 * x_46 + 24 x_45 * x_47
   + 48 x_45 * x_48 + 128 x_45 * x_49 + 8 x_45 * x_50 + 100 x_46 * x_47
   + 104 x_46 * x_48 + 136 x_46 * x_49 + 164 x_47 * x_48 + 44 x_47 * x_49
   + 156 x_47 * x_50 + 120 x_48 * x_49 ] / 2 
Subject To
 R0: 23 x_1 + 22 x_2 + 4 x_3 + 10 x_4 + 14 x_5 + 16 x_6 + 13 x_7 + 18 x_8
   + 2 x_9 + x_10 + 4 x_11 + 5 x_12 + 3 x_13 + 12 x_14 + 15 x_15 + 18 x_16
   + 3 x_17 + 11 x_18 + 9 x_19 + 6 x_20 + 24 x_21 + 19 x_22 + 8 x_23
   + 16 x_24 + 5 x_25 + 10 x_26 + 7 x_27 + 25 x_28 + 21 x_29 + 20 x_30
   + 16 x_31 + 16 x_32 + 18 x_33 + 5 x_34 + x_35 + 25 x_36 + 9 x_37
   + 14 x_38 + 24 x_39 + 4 x_40 + 19 x_41 + 8 x_42 + 17 x_43 + 2 x_44
   + 7 x_45 + 6 x_46 + 25 x_47 + 19 x_48 + 10 x_49 + 13 x_50 <= 356
Bounds
Binaries
 x_1 x_2 x_3 x_4 x_5 x_6 x_7 x_8 x_9 x_10 x_11 x_12 x_13 x_14 x_15 x_16
 x_17 x_18 x_19 x_20 x_21 x_22 x_23 x_24 x_25 x_26 x_27 x_28 x_29 x_30 x_31
 x_32 x_33 x_34 x_35 x_36 x_37 x_38 x_39 x_40 x_41 x_42 x_43 x_44 x_45 x_46
 x_47 x_48 x_49 x_50
End
